
n_res = 4;
rcap = [13, 11, 524, 542];
rtype = [1, 1, 2, 2];
n_tasks = 100;
modes =  [{1, 2, 3}, {4, 5, 6}, {7, 8, 9}, {10, 11, 12}, {13, 14, 15}, {16, 17, 18}, {19, 20, 21}, {22, 23, 24}, {25, 26, 27}, {28, 29, 30}, {31, 32, 33}, {34, 35, 36}, {37, 38, 39}, {40, 41, 42}, {43, 44, 45}, {46, 47, 48}, {49, 50, 51}, {52, 53, 54}, {55, 56, 57}, {58, 59, 60}, {61, 62, 63}, {64, 65, 66}, {67, 68, 69}, {70, 71, 72}, {73, 74, 75}, {76, 77, 78}, {79, 80, 81}, {82, 83, 84}, {85, 86, 87}, {88, 89, 90}, {91, 92, 93}, {94, 95, 96}, {97, 98, 99}, {100, 101, 102}, {103, 104, 105}, {106, 107, 108}, {109, 110, 111}, {112, 113, 114}, {115, 116, 117}, {118, 119, 120}, {121, 122, 123}, {124, 125, 126}, {127, 128, 129}, {130, 131, 132}, {133, 134, 135}, {136, 137, 138}, {139, 140, 141}, {142, 143, 144}, {145, 146, 147}, {148, 149, 150}, {151, 152, 153}, {154, 155, 156}, {157, 158, 159}, {160, 161, 162}, {163, 164, 165}, {166, 167, 168}, {169, 170, 171}, {172, 173, 174}, {175, 176, 177}, {178, 179, 180}, {181, 182, 183}, {184, 185, 186}, {187, 188, 189}, {190, 191, 192}, {193, 194, 195}, {196, 197, 198}, {199, 200, 201}, {202, 203, 204}, {205, 206, 207}, {208, 209, 210}, {211, 212, 213}, {214, 215, 216}, {217, 218, 219}, {220, 221, 222}, {223, 224, 225}, {226, 227, 228}, {229, 230, 231}, {232, 233, 234}, {235, 236, 237}, {238, 239, 240}, {241, 242, 243}, {244, 245, 246}, {247, 248, 249}, {250, 251, 252}, {253, 254, 255}, {256, 257, 258}, {259, 260, 261}, {262, 263, 264}, {265, 266, 267}, {268, 269, 270}, {271, 272, 273}, {274, 275, 276}, {277, 278, 279}, {280, 281, 282}, {283, 284, 285}, {286, 287, 288}, {289, 290, 291}, {292, 293, 294}, {295, 296, 297}, {298, 299, 300}];
succ =  [{25, 21, 13, 8, 7}, {25, 23, 22, 19, 16, 13}, {15, 14, 7}, {23, 22, 19, 16, 15}, {28, 24, 15, 12}, {24, 21, 17, 13}, {31, 23, 20, 19, 16}, {28, 15, 12}, {34, 28, 24, 17, 15}, {36, 27, 26, 25, 24, 22, 19}, {36, 34, 32, 31, 29, 28, 26, 24, 20}, {34, 31, 23, 20, 17}, {36, 34, 28, 15}, {35, 34, 31, 26, 24, 23, 20}, {35, 31, 29, 26, 20}, {37, 28, 24, 17}, {45, 41, 36, 35, 32, 30, 26}, {38, 35, 32, 31, 30, 24}, {51, 45, 44, 40, 39, 38, 34, 32}, {44, 41, 39, 37, 27}, {51, 41, 39, 37, 27}, {45, 44, 41, 37, 35, 29}, {51, 44, 39, 37, 36, 30}, {51, 50, 46, 45, 44, 41, 33}, {55, 51, 50, 45, 44, 37, 33}, {51, 46, 44, 40, 38, 33}, {45, 40, 30}, {55, 50, 46, 45, 33}, {30}, {55, 50, 46, 33}, {60, 57, 50, 49, 47, 45, 44, 43, 42}, {50, 46, 33}, {64, 60, 57, 49, 47, 43, 42}, {60, 57, 50, 46, 42, 41}, {64, 60, 55, 53, 49, 47, 42}, {64, 60, 56, 55, 53, 48, 42}, {60, 54, 52, 48, 46, 43}, {68, 62, 60, 57, 53, 50, 49, 48}, {72, 64, 60, 55, 48, 43}, {64, 55, 52, 50, 43}, {68, 63, 56, 55, 54, 52, 48}, {78, 72, 69, 68, 63, 62, 54, 52}, {71, 68, 63, 62, 58, 56, 53}, {71, 68, 63, 62, 58, 56, 53}, {71, 69, 68, 64, 62, 61, 59, 58, 56}, {78, 72, 63, 62, 56, 53}, {72, 68, 63, 48}, {71, 69, 61, 59, 58}, {75, 69, 63, 58, 56}, {78, 72, 71, 69, 66, 65, 61}, {88, 72, 71, 70, 67, 66, 65}, {67, 66, 65, 59}, {69, 61, 59}, {88, 74, 71, 70, 61}, {88, 77, 75, 74, 70, 67}, {88, 74, 67, 66, 65}, {67, 59}, {88, 78, 73, 66, 65}, {88, 79, 77, 74, 73, 70}, {88, 67, 66}, {100, 81, 79, 77, 67}, {100, 88, 87, 75, 73}, {88, 74, 67}, {100, 88, 73, 70}, {100, 87, 86, 84, 79, 77, 76}, {100, 86, 84, 82, 81, 79, 77}, {87, 86, 83, 73}, {100, 88, 70}, {100, 89, 82, 81, 79, 77}, {89, 87, 86, 85, 82, 81}, {100, 97, 89, 82, 81, 80}, {100, 98, 97, 83, 80, 76}, {98, 97, 84, 80, 76}, {100, 97, 89, 81, 80}, {86, 81, 80, 79}, {99, 96, 94, 89, 85, 82}, {98, 83, 80}, {100, 98, 96, 95, 94, 93, 92, 90, 89}, {99, 98, 97, 94, 93, 92, 91, 90}, {96, 95, 94, 92, 90, 85}, {99, 98, 96, 94, 83}, {95, 92, 91, 90}, {93, 91, 90}, {95, 94, 92}, {93, 91}, {97, 92}, {97, 90}, {97, 90}, {91}, {}, {}, {}, {}, {}, {}, {}, {}, {}, {}, {}];
n_opt = 300;
dur = [3, 7, 9, 5, 7, 10, 5, 7, 9, 5, 9, 9, 8, 8, 10, 2, 8, 10, 1, 2, 10, 1, 3, 4, 3, 5, 8, 1, 3, 8, 6, 9, 9, 3, 6, 9, 1, 5, 7, 6, 8, 9, 1, 3, 9, 5, 9, 10, 1, 1, 6, 2, 6, 9, 2, 4, 8, 1, 8, 9, 1, 6, 9, 5, 7, 10, 2, 4, 5, 2, 3, 10, 1, 2, 3, 1, 7, 9, 3, 5, 6, 5, 6, 10, 8, 8, 9, 3, 6, 7, 2, 7, 10, 2, 2, 10, 1, 2, 9, 2, 6, 10, 5, 7, 10, 1, 8, 9, 2, 3, 8, 6, 8, 9, 1, 3, 10, 5, 7, 8, 3, 4, 9, 5, 9, 10, 3, 7, 8, 7, 8, 10, 6, 9, 9, 1, 2, 7, 2, 8, 9, 5, 8, 8, 1, 3, 10, 1, 2, 8, 3, 7, 8, 1, 3, 9, 4, 5, 6, 3, 4, 7, 7, 7, 8, 1, 3, 5, 4, 5, 7, 5, 6, 9, 1, 7, 8, 1, 5, 9, 7, 9, 10, 3, 5, 7, 2, 3, 6, 2, 3, 10, 1, 4, 9, 4, 6, 7, 6, 8, 10, 2, 9, 10, 1, 5, 10, 5, 7, 8, 1, 4, 8, 7, 9, 10, 1, 8, 9, 7, 8, 9, 1, 3, 5, 6, 6, 7, 1, 2, 9, 3, 5, 6, 2, 7, 8, 6, 9, 10, 4, 4, 5, 5, 6, 7, 3, 4, 10, 2, 6, 10, 1, 4, 6, 1, 6, 8, 1, 5, 10, 1, 4, 7, 3, 3, 4, 3, 4, 9, 1, 2, 9, 2, 2, 10, 3, 4, 8, 6, 6, 9, 5, 7, 10, 5, 8, 9, 3, 3, 7, 4, 6, 8, 1, 3, 5, 1, 5, 7];
rreq = [|3, 2, 2, 0, 4, 4, 0, 0, 3, 4, 0, 3, 0, 3, 0, 0, 4, 0, 4, 4, 3, 3, 0, 0, 2, 2, 0, 2, 1, 0, 0, 0, 1, 0, 0, 0, 5, 0, 0, 3, 3, 2, 0, 4, 4, 3, 0, 0, 4, 0, 2, 0, 2, 2, 0, 2, 0, 2, 1, 0, 2, 1, 0, 0, 0, 0, 1, 0, 1, 0, 2, 2, 3, 0, 0, 3, 0, 1, 2, 0, 0, 3, 3, 2, 0, 2, 2, 4, 4, 0, 4, 4, 0, 3, 0, 0, 0, 0, 0, 0, 0, 0, 3, 0, 1, 0, 2, 2, 0, 0, 1, 0, 0, 2, 4, 0, 0, 2, 0, 1, 0, 0, 3, 0, 0, 0, 0, 0, 0, 3, 0, 0, 0, 2, 0, 4, 3, 0, 4, 0, 4, 3, 3, 0, 0, 3, 0, 4, 0, 0, 3, 2, 2, 4, 0, 4, 0, 0, 0, 0, 0, 0, 3, 0, 0, 0, 0, 0, 0, 3, 3, 0, 0, 0, 0, 0, 0, 0, 5, 0, 0, 2, 0, 5, 0, 0, 2, 0, 0, 4, 3, 3, 0, 0, 2, 0, 0, 1, 0, 3, 0, 4, 4, 0, 3, 0, 2, 1, 0, 1, 3, 2, 0, 0, 0, 5, 0, 0, 0, 3, 0, 2, 4, 0, 0, 4, 2, 2, 4, 4, 0, 3, 0, 2, 0, 0, 4, 3, 3, 0, 0, 2, 2, 3, 0, 0, 0, 0, 4, 0, 0, 0, 0, 0, 1, 4, 0, 4, 2, 0, 1, 0, 0, 0, 2, 0, 1, 0, 3, 0, 3, 1, 1, 0, 1, 1, 0, 0, 1, 1, 0, 0, 2, 1, 0, 0, 0, 0, 0, 4, 0, 0, 2, 0, 0, 0, 3, 4, 3, 3
 |0, 0, 0, 4, 0, 0, 4, 4, 0, 0, 1, 0, 2, 0, 1, 3, 0, 3, 0, 0, 0, 0, 3, 3, 0, 0, 2, 0, 0, 4, 2, 1, 0, 1, 1, 1, 0, 1, 1, 0, 0, 0, 1, 0, 0, 0, 1, 1, 0, 3, 0, 4, 0, 0, 3, 0, 2, 0, 0, 4, 0, 0, 1, 4, 3, 3, 0, 3, 0, 4, 0, 0, 0, 3, 1, 0, 5, 0, 0, 1, 1, 0, 0, 0, 3, 0, 0, 0, 0, 2, 0, 0, 4, 0, 2, 1, 1, 1, 1, 3, 3, 2, 0, 4, 0, 3, 0, 0, 3, 3, 0, 3, 3, 0, 0, 1, 1, 0, 3, 0, 5, 4, 0, 3, 3, 3, 1, 1, 1, 0, 1, 1, 4, 0, 2, 0, 0, 1, 0, 2, 0, 0, 0, 2, 4, 0, 2, 0, 3, 2, 0, 0, 0, 0, 3, 0, 2, 2, 2, 3, 2, 2, 0, 3, 1, 3, 2, 2, 5, 0, 0, 4, 3, 2, 1, 1, 1, 4, 0, 3, 4, 0, 4, 0, 2, 2, 0, 4, 4, 0, 0, 0, 3, 3, 0, 4, 4, 0, 1, 0, 1, 0, 0, 2, 0, 3, 0, 0, 3, 0, 0, 0, 2, 2, 2, 0, 3, 3, 3, 0, 1, 0, 0, 4, 4, 0, 0, 0, 0, 0, 4, 0, 4, 0, 4, 3, 0, 0, 0, 2, 5, 0, 0, 0, 2, 2, 4, 3, 0, 5, 4, 4, 3, 3, 0, 0, 1, 0, 0, 3, 0, 5, 3, 2, 0, 3, 0, 4, 0, 2, 0, 0, 0, 1, 0, 0, 3, 2, 0, 0, 2, 1, 0, 0, 1, 2, 2, 2, 3, 0, 2, 4, 0, 4, 3, 2, 0, 0, 0, 0
 |7, 5, 3, 5, 4, 1, 7, 4, 3, 6, 4, 2, 6, 5, 3, 2, 2, 2, 1, 1, 1, 4, 3, 2, 8, 7, 3, 8, 6, 4, 6, 3, 2, 7, 7, 7, 10, 8, 7, 7, 4, 1, 5, 4, 3, 5, 4, 3, 5, 3, 3, 8, 7, 4, 7, 7, 5, 6, 3, 2, 5, 4, 2, 8, 5, 3, 10, 10, 10, 4, 4, 4, 8, 5, 4, 4, 3, 1, 6, 5, 4, 8, 7, 7, 9, 5, 3, 3, 2, 1, 7, 6, 6, 6, 6, 4, 9, 9, 7, 8, 4, 4, 7, 6, 6, 6, 4, 1, 9, 6, 6, 4, 4, 4, 8, 8, 7, 8, 6, 2, 7, 4, 3, 7, 6, 4, 9, 5, 4, 9, 9, 8, 4, 3, 2, 8, 7, 6, 6, 5, 5, 8, 8, 5, 5, 5, 4, 6, 6, 5, 8, 6, 6, 2, 2, 2, 8, 7, 7, 6, 4, 2, 9, 6, 4, 5, 4, 2, 7, 5, 4, 9, 9, 9, 7, 7, 6, 7, 6, 6, 9, 7, 6, 9, 5, 3, 3, 3, 3, 8, 7, 4, 7, 7, 7, 8, 4, 1, 8, 5, 4, 3, 2, 2, 3, 2, 1, 4, 3, 3, 9, 5, 4, 7, 6, 3, 6, 5, 3, 8, 5, 5, 8, 7, 5, 9, 8, 8, 4, 4, 2, 5, 5, 5, 9, 6, 4, 4, 4, 4, 3, 2, 2, 4, 3, 3, 4, 3, 3, 8, 7, 6, 8, 7, 5, 1, 1, 1, 7, 5, 3, 4, 4, 2, 6, 6, 6, 10, 7, 1, 2, 1, 1, 10, 9, 8, 6, 6, 6, 8, 8, 8, 9, 7, 7, 6, 5, 4, 8, 7, 7, 5, 5, 5, 5, 5, 3, 6, 5, 5
 |3, 2, 1, 6, 5, 4, 6, 6, 3, 3, 2, 1, 6, 6, 2, 5, 4, 4, 4, 3, 2, 10, 9, 8, 10, 6, 2, 7, 6, 4, 10, 9, 8, 6, 3, 2, 7, 4, 4, 7, 7, 7, 8, 8, 8, 2, 1, 1, 5, 5, 4, 6, 5, 4, 9, 9, 8, 7, 6, 5, 2, 1, 1, 9, 8, 7, 9, 8, 7, 10, 8, 7, 7, 6, 2, 5, 5, 2, 10, 10, 10, 4, 3, 3, 6, 6, 6, 4, 2, 1, 10, 9, 9, 4, 4, 2, 7, 6, 6, 2, 1, 1, 6, 6, 3, 7, 3, 3, 5, 3, 2, 7, 5, 4, 8, 7, 7, 8, 8, 6, 4, 4, 4, 6, 6, 6, 6, 5, 3, 8, 8, 8, 7, 5, 5, 4, 3, 3, 3, 3, 3, 6, 4, 3, 4, 4, 4, 1, 1, 1, 9, 6, 5, 9, 9, 8, 8, 9, 8, 7, 7, 7, 7, 7, 7, 4, 2, 1, 5, 4, 3, 9, 4, 2, 4, 3, 4, 9, 6, 5, 7, 7, 5, 2, 1, 1, 5, 2, 1, 6, 6, 6, 8, 7, 6, 3, 3, 3, 8, 5, 5, 10, 9, 8, 6, 4, 3, 10, 7, 3, 9, 7, 6, 7, 4, 3, 5, 4, 4, 6, 6, 6, 7, 7, 7, 3, 4, 3, 9, 8, 8, 3, 3, 3, 8, 8, 6, 10, 4, 2, 9, 8, 7, 7, 7, 6, 5, 5, 5, 9, 9, 9, 4, 4, 4, 9, 8, 8, 1, 1, 1, 8, 8, 7, 2, 1, 1, 3, 3, 3, 9, 7, 6, 6, 4, 3, 7, 6, 6, 5, 3, 3, 9, 9, 8, 4, 3, 3, 7, 7, 5, 5, 4, 4, 7, 6, 3, 9, 9, 7|];